  Job Started  at 10:22.23  9th July       2009

  Number of CPUs =     1

  Total number of configurations input =   1

*  Input for Configuration =   1 : gibbsite                                    *

  Formula = Al8O24H24

  Number of irreducible atoms/shells =      20

  Total number atoms/shells =      80

  Dimensionality = 3               :  Bulk

  Symmetry :

  Crystal family                   :  Monoclinic
  Crystal class  (Groth - 1921)    :  Monoclinic Prismatic

  Space group (centrosymmetric)    :  P 1 21/N 1

  Non-standard setting of group    :  P 21/C

  Patterson group                  :  P 2/m

  Cartesian lattice vectors (Angstroms) :

        8.684000    0.000000    0.000000
        0.000000    5.078000    0.000000
       -0.770654    0.000000    9.705452

  Cell parameters (Angstroms/Degrees):

  a =       8.6840    alpha =  90.0000
  b =       5.0780    beta  =  94.5400
  c =       9.7360    gamma =  90.0000

  Initial cell volume =         427.984711 Angs**3

  Temperature of configuration =  0.000     K

  Pressure of configuration =         0.000 GPa

  Fractional coordinates of asymmetric unit :

   No.  Atomic       x           y          z         Charge      Occupancy
        Label      (Frac)      (Frac)     (Frac)        (e)         (Frac)
      1 Al    c    0.167900 *  0.529500 *  0.997700 *    3.0000    1.000000
      2 Al    c    0.334400 *  0.023600 *  0.997600 *    3.0000    1.000000
      3 O1    c    0.177900 *  0.218300 *  0.888500 *    0.9480    1.000000
      4 O1    c    0.669200 *  0.655800 *  0.897700 *    0.9480    1.000000
      5 O1    c    0.498400 *  0.131500 *  0.895600 *    0.9480    1.000000
      6 O1    c    0.979500 *  0.629300 *  0.893200 *    0.9480    1.000000
      7 O1    c    0.297100 *  0.717800 *  0.894800 *    0.9480    1.000000
      8 O1    c    0.819400 *  0.149100 *  0.898500 *    0.9480    1.000000
      9 H1    c    0.077262 *  0.136549 *  0.874464 *    0.4180    1.000000
     10 H1    c    0.574642 *  0.552033 *  0.897494 *    0.4180    1.000000
     11 H1    c    0.494353 *  0.110970 *  0.795476 *    0.4180    1.000000
     12 H1    c    0.951158 *  0.814745 *  0.886939 *    0.4180    1.000000
     13 H1    c    0.295768 *  0.716748 *  0.794078 *    0.4180    1.000000
     14 H1    c    0.805904 *  0.161311 *  0.797539 *    0.4180    1.000000
     15 O1    s    0.177900 *  0.218300 *  0.888500 *   -2.3660    1.000000
     16 O1    s    0.669200 *  0.655800 *  0.897700 *   -2.3660    1.000000
     17 O1    s    0.498400 *  0.131500 *  0.895600 *   -2.3660    1.000000
     18 O1    s    0.979500 *  0.629300 *  0.893200 *   -2.3660    1.000000
     19 O1    s    0.297100 *  0.717800 *  0.894800 *   -2.3660    1.000000
     20 O1    s    0.819400 *  0.149100 *  0.898500 *   -2.3660    1.000000

  Molecule list generated from bondlengths :

  Total number of molecules =  24

Molecule No./:  Atoms
Periodicity  :
   1  0      : O1   c    9 H1   c   33 O1   s   57
   2  0      : O1   c   10 H1   c   34 O1   s   58
   3  0      : O1   c   11 H1   c   35 O1   s   59
   4  0      : O1   c   12 H1   c   36 O1   s   60
   5  0      : O1   c   13 H1   c   37 O1   s   61
   6  0      : O1   c   14 H1   c   38 O1   s   62
   7  0      : O1   c   15 H1   c   39 O1   s   63
   8  0      : O1   c   16 H1   c   40 O1   s   64
   9  0      : O1   c   17 H1   c   41 O1   s   65
  10  0      : O1   c   18 H1   c   42 O1   s   66
  11  0      : O1   c   19 H1   c   43 O1   s   67
  12  0      : O1   c   20 H1   c   44 O1   s   68
  13  0      : O1   c   21 H1   c   45 O1   s   69
  14  0      : O1   c   22 H1   c   46 O1   s   70
  15  0      : O1   c   23 H1   c   47 O1   s   71
  16  0      : O1   c   24 H1   c   48 O1   s   72
  17  0      : O1   c   25 H1   c   49 O1   s   73
  18  0      : O1   c   26 H1   c   50 O1   s   74
  19  0      : O1   c   27 H1   c   51 O1   s   75
  20  0      : O1   c   28 H1   c   52 O1   s   76
  21  0      : O1   c   29 H1   c   53 O1   s   77
  22  0      : O1   c   30 H1   c   54 O1   s   78
  23  0      : O1   c   31 H1   c   55 O1   s   79
  24  0      : O1   c   32 H1   c   56 O1   s   80

  Bond calculation :

  Asymmetric unit site  Full lattice sites    No.  Distance      No.  Distance
                                                    (Angs)             (Angs)
      3    O1    core        H1    core        1    0.9674
      4    O1    core        H1    core        1    0.9755
      5    O1    core        H1    core        1    0.9782
      6    O1    core        H1    core        1    0.9740
      7    O1    core        H1    core        1    0.9798
      8    O1    core        H1    core        1    0.9826
      9    H1    core        O1    core        1    0.9674
                             O1    shell       1    0.9674
     10    H1    core        O1    core        1    0.9755
                             O1    shell       1    0.9755
     11    H1    core        O1    core        1    0.9782
                             O1    shell       1    0.9782
     12    H1    core        O1    core        1    0.9740
                             O1    shell       1    0.9740
     13    H1    core        O1    core        1    0.9798
                             O1    shell       1    0.9798
     14    H1    core        O1    core        1    0.9826
                             O1    shell       1    0.9826
     15    O1    shell       H1    core        1    0.9674
     16    O1    shell       H1    core        1    0.9755
     17    O1    shell       H1    core        1    0.9782
     18    O1    shell       H1    core        1    0.9740
     19    O1    shell       H1    core        1    0.9798
     20    O1    shell       H1    core        1    0.9826
  Total number of bonds =       12

*  General input information                                                   *

  Species output for all configurations :

  Species    Type    Atomic    Atomic    Charge       Radii (Angs)     Library
                     Number     Mass       (e)     Cova   Ionic  VDW   Symbol
    Al       Core       13      26.98     3.0000   0.100  0.000  2.050
    O1       Core        8      16.00     0.9480   0.730  0.000  1.360
    O1       Shell       8       0.00    -2.3660   0.730  0.000  1.360
    H1       Core        1       1.01     0.4180   0.370  0.000  1.080

  Lattice summation method               =    Ewald
  Accuracy factor for lattice sums       =    8.000

  Time limit = Infinity

!! WARNING : potential   5 is acting on the core of an ion with a shell

  General interatomic potentials :

Atom  Types   Potential         A         B         C         D     Cutoffs(Ang)
  1     2                                                            Min    Max
O1   c O1   s Spring (c-s)   60.1      0.00     0.00     0.00       0.000  0.600

  Intramolecular potentials :

Atom  Types   Potential         A         B         C         D     Cutoffs(Ang)
  1     2                                                            Min    Max
H1   c O1   c Morse          5.42      2.27     .950     0.00       0.000 1 Bond

  Intermolecular potentials :

Atom  Types   Potential         A         B         C         D     Cutoffs(Ang)
  1     2                                                            Min    Max
Al   c O1   s Buckingham    0.134E+04 0.294     0.00     0.00       0.000 15.000
H1   c Al   c Buckingham     560.     0.291     0.00     0.00       0.000 15.000
O1   s O1   s Buckingham    0.100E+05 0.149     17.0     0.00       0.000 15.000
H1   c O1   s Buckingham     235.     0.250     0.00     0.00       0.000 15.000

*  Output for configuration   1 : gibbsite                                     *

  Components of energy :

  Interatomic potentials     =         -25.80170987 eV
  Monopole - monopole (real) =        -247.54835116 eV
  Monopole - monopole (recip)=        -341.38291857 eV
  Monopole - monopole (total)=        -588.93126973 eV
  Total lattice energy       =        -614.73297961 eV
  Total lattice energy       =          -59312.3355 kJ/(mole unit cells)

  Number of variables =     64

  Maximum number of calculations  =          1000
  Maximum Hessian update interval =            10
  Maximum step size               =   1.000000000
  Maximum parameter tolerance     =   0.000010000
  Maximum function  tolerance     =   0.000010000
  Maximum gradient  tolerance     =   0.001000000
  Maximum gradient  component     =   0.010000000

  Symmetry constrained optimisation

  Symmetry used for second derivatives

  Cell parameters to be optimised using strains

  Newton-Raphson optimiser to be used

  BFGS hessian update to be used

  Minimiser to switch to RFO
  When gradient norm is less than     1.000000

  Start of bulk optimisation :

  ** Hessian calculated **
  ** Hessian calculated **
  ** Hessian calculated **
  ** Hessian has wrong structure
  ** Imaginary eigenvectors =   1
  ** Hessian has required structure
  ** Hessian has required structure
  ** Hessian has required structure
  ** Hessian has required structure
  ** Hessian has required structure
  ** Hessian has required structure
  ** Hessian has required structure
  ** Hessian has required structure
  ** Hessian has required structure
  ** Hessian has required structure
  ** Hessian has required structure
  ** Hessian has required structure
  ** Hessian has required structure
  ** Hessian has required structure
  ** Hessian has required structure
  ** Hessian has required structure

  **** Optimisation achieved ****

  Final energy =    -641.29353860 eV
  Final Gnorm  =       0.00024812

  Components of energy :

  Interatomic potentials     =           1.17435460 eV
  Monopole - monopole (real) =          -3.87075092 eV
  Monopole - monopole (recip)=        -638.59714228 eV
  Monopole - monopole (total)=        -642.46789320 eV
  Total lattice energy       =        -641.29353860 eV
  Total lattice energy       =          -61875.0234 kJ/(mole unit cells)

  Final asymmetric unit coordinates :

   No.  Atomic        x           y           z         Radius
        Label       (Frac)      (Frac)      (Frac)       (Angs)
     1  Al    c     0.163907    0.545668    0.995790    0.000000
     2  Al    c     0.335103    0.041901    0.996392    0.000000
     3  O1    c     0.174195    0.232576    0.875977    0.000000
     4  O1    c     0.646419    0.610928    0.908882    0.000000
     5  O1    c     0.495831    0.094019    0.873225    0.000000
     6  O1    c     0.968741    0.689314    0.907258    0.000000
     7  O1    c     0.253150    0.771090    0.863623    0.000000
     8  O1    c     0.785315    0.157232    0.873151    0.000000
     9  H1    c     0.105713    0.173274    0.794655    0.000000
    10  H1    c     0.555856    0.497182    0.879279    0.000000
    11  H1    c     0.502780    0.112795    0.772663    0.000000
    12  H1    c     0.948084    0.881526    0.884062    0.000000
    13  H1    c     0.231609    0.800138    0.763005    0.000000
    14  H1    c     0.787896    0.149379    0.771571    0.000000
    15  O1    s     0.184211    0.242697    0.888495    0.000000
    16  O1    s     0.660056    0.626927    0.916860    0.000000
[...]
     11 y          0.110970      0.112795     0.001825    Fractional   1.64
     11 z          0.795476      0.772663     0.022813    Fractional   2.87
     12 x          0.951158      0.948084     0.003074    Fractional   0.32
     12 y          0.814745      0.881526     0.066781    Fractional   8.20
     12 z          0.886939      0.884062     0.002877    Fractional   0.32
     13 x          0.295768      0.231609     0.064159    Fractional  21.69
     13 y          0.716748      0.800138     0.083390    Fractional  11.63
     13 z          0.794078      0.763005     0.031073    Fractional   3.91
     14 x          0.805904      0.787896     0.018008    Fractional   2.23
     14 y          0.161311      0.149379     0.011932    Fractional   7.40
     14 z          0.797539      0.771571     0.025968    Fractional   3.26
     15 x          0.177900      0.184211     0.006311    Fractional   3.55
     15 y          0.218300      0.242697     0.024397    Fractional  11.18
     15 z          0.888500      0.888495     0.000005    Fractional   0.00
     16 x          0.669200      0.660056     0.009144    Fractional   1.37
     16 y          0.655800      0.626927     0.028873    Fractional   4.40
     16 z          0.897700      0.916860     0.019160    Fractional   2.13
     17 x          0.498400      0.495302     0.003098    Fractional   0.62
     17 y          0.131500      0.087131     0.044369    Fractional  33.74
     17 z          0.895600      0.889299     0.006301    Fractional   0.70
     18 x          0.979500      0.972287     0.007213    Fractional   0.74
     18 y          0.629300      0.661218     0.031918    Fractional   5.07
     18 z          0.893200      0.914355     0.021155    Fractional   2.37
     19 x          0.297100      0.254162     0.042938    Fractional  14.45
     19 y          0.717800      0.769637     0.051837    Fractional   7.22
     19 z          0.894800      0.880529     0.014271    Fractional   1.59
     20 x          0.819400      0.783809     0.035591    Fractional   4.34
     20 y          0.149100      0.160936     0.011836    Fractional   7.94
     20 z          0.898500      0.888991     0.009509    Fractional   1.06

  Bond calculation :

  Asymmetric unit site  Full lattice sites    No.  Distance      No.  Distance
                                                    (Angs)             (Angs)
      3    O1    core        H1    core        1    0.9928
      4    O1    core        H1    core        1    0.9976
      5    O1    core        H1    core        1    0.9969
      6    O1    core        H1    core        1    0.9987
      7    O1    core        H1    core        1    0.9940
      8    O1    core        H1    core        1    0.9976
      9    H1    core        O1    core        1    0.9928
                             O1    shell       1    1.1447
     10    H1    core        O1    core        1    0.9976
                             O1    shell       1    1.1522
     11    H1    core        O1    core        1    0.9969
                             O1    shell       1    1.1574
     12    H1    core        O1    core        1    0.9987
                             O1    shell       1    1.1535
     13    H1    core        O1    core        1    0.9940
                             O1    shell       1    1.1569
     14    H1    core        O1    core        1    0.9976
                             O1    shell       1    1.1550
     15    O1    shell       H1    core        1    1.1447
     16    O1    shell       H1    core        1    1.1522
     17    O1    shell       H1    core        1    1.1574
     18    O1    shell       H1    core        1    1.1535
     19    O1    shell       H1    core        1    1.1569
     20    O1    shell       H1    core        1    1.1550
  Total number of bonds =       12

  Born effective charge tensors :

  Atom             x           y             z
   1 Al    x       2.6821      0.0519      0.0682
           y       0.0083      2.7354      0.0014
           z       0.0466     -0.0114      2.1138
   2 Al    x       2.7420     -0.0723      0.0589
           y      -0.0191      2.6705     -0.0559
           z       0.0881     -0.0422      2.2303
   3 O1    x      -1.3137      0.1759      0.0118
           y       0.1877     -1.4983     -0.0151
           z      -0.0102     -0.0351     -1.3370
   4 O1    x      -1.3548      0.1650     -0.0597
           y       0.1692     -1.5127     -0.0390
           z      -0.0977     -0.0463     -1.2608
   5 O1    x      -1.6350      0.0567     -0.0358
           y       0.0279     -1.2506      0.0685
           z      -0.0411      0.0934     -1.2696
   6 O1    x      -1.6223     -0.0330      0.0240
           y      -0.0075     -1.2351      0.0863
           z       0.0469      0.1088     -1.2704
   7 O1    x      -1.3018     -0.1552      0.0080
           y      -0.1699     -1.4979     -0.0335
           z       0.0322     -0.0446     -1.3053
   8 O1    x      -1.3802     -0.1253      0.0435
           y      -0.1266     -1.5728     -0.0304
           z       0.0703     -0.0336     -1.2900
   9 H1    x       0.5333     -0.0258     -0.0380
           y      -0.0278      0.5477     -0.0386
           z      -0.0423     -0.0405      0.5791
  10 H1    x       0.5203     -0.0134     -0.0078
           y      -0.0240      0.6127     -0.0043
           z      -0.0029     -0.0118      0.4806
  11 H1    x       0.5436      0.0111      0.0122
           y       0.0107      0.4544     -0.0097
           z       0.0213     -0.0190      0.6212
  12 H1    x       0.6078     -0.0417     -0.0125
           y      -0.0420      0.5144      0.0093
           z      -0.0231      0.0131      0.4871
  13 H1    x       0.4859      0.0254     -0.0504
           y       0.0322      0.5258      0.0434
           z      -0.0590      0.0519      0.5966
  14 H1    x       0.4929      0.0008     -0.0225
           y       0.0059      0.5064      0.0046
           z      -0.0293      0.0081      0.6243

  Elastic Constant Matrix: (Units=GPa)

  Indices      1         2         3         4         5         6
       1    122.1428   71.7466    3.4773    0.0000   -8.7853    0.0000
       2     71.7466  141.8005    8.4586    0.0000   -0.5634    0.0000
       3      3.4773    8.4586   76.5629    0.0000   -1.5251    0.0000
       4      0.0000    0.0000    0.0000   10.3877    0.0000   -2.9433
       5     -8.7853   -0.5634   -1.5251    0.0000   13.6951    0.0000
       6      0.0000    0.0000    0.0000   -2.9433    0.0000   33.9477

  Elastic Compliance Matrix: (Units=1/GPa)

  Indices      1         2         3         4         5         6
       1    0.012418 -0.006269  0.000283  0.000000  0.007740  0.000000
       2   -0.006269  0.010265 -0.000923  0.000000 -0.003702  0.000000
       3    0.000283 -0.000923  0.013182  0.000000  0.001611  0.000000
       4    0.000000  0.000000  0.000000  0.098692  0.000000  0.008557
       5    0.007740 -0.003702  0.001611  0.000000  0.078011  0.000000
       6    0.000000  0.000000  0.000000  0.008557  0.000000  0.030199

 Mechanical properties :

  Convention :                    Reuss         Voigt         Hill
  Bulk  Modulus (GPa)     =      45.35946      56.43014      50.89480
  Shear Modulus (GPa)     =      18.94403      28.72768      23.83586
  Velocity S-wave (km/s)  =       8.84753      10.89522       9.92433
  Velocity P-wave (km/s)  =      17.08221      19.78509      18.48312
  Compressibility (1/GPa) =    0.02204612
  Stress axis :                     x             y             z
  Youngs Moduli (GPa)     =      80.52515      97.42156      75.85879
  Poissons Ratio (x)      =                     0.61078      -0.02145
  Poissons Ratio (y)      =       0.50485                     0.07002
  Poissons Ratio (z)      =      -0.02277       0.08992

  Piezoelectric Strain Matrix: (Units=C/m**2)

  Indices      1         2         3         4         5         6
       x     0.00000   0.00000   0.00000   0.00000   0.00000   0.00000
       y     0.00000   0.00000   0.00000   0.00000   0.00000   0.00000
       z     0.00000   0.00000   0.00000   0.00000   0.00000   0.00000

  Piezoelectric Stress Matrix: (Units=10**-11 C/N)

  Indices      1         2         3         4         5         6
       x     0.00000   0.00000   0.00000   0.00000   0.00000   0.00000
       y     0.00000   0.00000   0.00000   0.00000   0.00000   0.00000
       z     0.00000   0.00000   0.00000   0.00000   0.00000   0.00000

  Static dielectric constant tensor :

              x         y         z
       x     6.37949   0.00000  -0.63553
       y     0.00000   5.96098   0.00000
       z    -0.63553   0.00000   3.90907

  High frequency dielectric constant tensor :

              x         y         z
       x     2.09124   0.00000  -0.00929
       y     0.00000   2.09237   0.00000
       z    -0.00929   0.00000   2.02338

  Static refractive indices :

    1 =    1.93782      2 =    2.44151      3 =    2.55605

  High frequency refractive indices :

    1 =    1.42202      2 =    1.44650      3 =    1.44655

  Phonon Calculation :

  K direction for n-a correction at gamma =  1.00000  1.00000  1.00000

  Number of k points for this configuration =    1

  K point   1 =   0.000000  0.000000  0.000000  Weight =    1.000

  Frequencies (cm-1) [NB: Negative implies an imaginary mode]:

    0.00    0.00    0.00   50.92   56.31   82.89   95.27   99.84  100.35
  105.94  111.30  138.56  144.94  155.36  164.25  166.67  171.62  178.61
  183.10  188.19  198.03  201.13  203.71  208.44  213.26  213.41  216.67
  219.55  222.33  231.39  253.98  258.55  260.30  265.56  272.10  274.81
  283.62  289.77  304.58  311.76  313.77  322.15  356.50  358.07  361.12
  362.92  371.20  379.28  385.97  390.60  394.07  395.43  408.38  416.69
  424.95  431.64  431.90  435.78  438.80  442.17  454.96  457.71  462.55
  471.34  473.85  494.25  499.92  505.20  512.90  515.79  518.63  527.24
  532.80  534.96  535.13  540.91  541.74  544.81  544.98  547.03  557.27
  566.19  567.16  569.37  573.69  580.12  586.22  588.20  599.07  602.84
  605.82  609.83  610.63  614.38  624.68  628.85  634.93  640.37  647.19
  653.88  657.90  661.28  675.50  680.22  684.11  687.49  704.07  710.13
  713.26  723.49  734.19  736.23  741.43  756.63  764.13  776.06  780.41
  793.48  795.90  804.42  818.07  836.29  836.74  839.47  841.03  847.63
  857.37  895.86  903.13  904.62  919.25  929.97  932.34  949.81  961.03
  965.72  965.75  989.74  994.52  995.60 1006.25 1026.06 1039.54 1042.99
 3439.15 3439.26 3440.16 3440.33 3449.25 3449.99 3450.61 3456.43 3460.58
 3465.02 3473.66 3477.54 3483.43 3486.24 3489.57 3495.50 3499.25 3499.61
 3505.82 3506.85 3529.44 3530.50 3557.92 3575.15

  Phonon properties (per mole of unit cells): Temperature =      0.000 K
  Zero point energy            =        9.774744 eV

  Phonon density of states :

 Frequency (cm-1) Density of States
    0.00000 |********                                                      0.012
   56.00000 |******************************                                0.042
  112.00000 |*********************                                         0.030
  168.00000 |*******************************************************       0.078
  224.00000 |******************************                                0.042
  280.00000 |*************************                                     0.036
  336.00000 |**********************************                            0.048
  392.00000 |******************************************                    0.060
  448.00000 |******************************                                0.042
  504.00000 |************************************************************  0.084
  560.00000 |*******************************************************       0.078
  616.00000 |**********************************                            0.048
  672.00000 |**********************************                            0.048
  728.00000 |******************************                                0.042
  784.00000 |******************************                                0.042
  840.00000 |*****************                                             0.024
  896.00000 |*************************                                     0.036
  952.00000 |******************************                                0.042
 1008.00000 |************                                                  0.018
 1064.00000 |                                                              0.000
 1120.00000 |                                                              0.000
 1176.00000 |                                                              0.000
 1232.00000 |                                                              0.000
 1288.00000 |                                                              0.000
 1344.00000 |                                                              0.000
 1400.00000 |                                                              0.000
 1456.00000 |                                                              0.000
 1512.00000 |                                                              0.000
 1568.00000 |                                                              0.000
 1624.00000 |                                                              0.000
 1680.00000 |                                                              0.000
 1736.00000 |                                                              0.000
 1792.00000 |                                                              0.000
 1848.00000 |                                                              0.000
 1904.00000 |                                                              0.000
 1960.00000 |                                                              0.000
 2016.00000 |                                                              0.000
 2072.00000 |                                                              0.000
 2128.00000 |                                                              0.000
 2184.00000 |                                                              0.000
 2240.00000 |                                                              0.000
 2296.00000 |                                                              0.000
 2352.00000 |                                                              0.000
 2408.00000 |                                                              0.000
 2464.00000 |                                                              0.000
 2520.00000 |                                                              0.000
 2576.00000 |                                                              0.000
 2632.00000 |                                                              0.000
 2688.00000 |                                                              0.000
 2744.00000 |                                                              0.000
 2800.00000 |                                                              0.000
 2856.00000 |                                                              0.000
 2912.00000 |                                                              0.000
 2968.00000 |                                                              0.000
 3024.00000 |                                                              0.000
 3080.00000 |                                                              0.000
 3136.00000 |                                                              0.000
 3192.00000 |                                                              0.000
 3248.00000 |                                                              0.000
 3304.00000 |                                                              0.000
 3360.00000 |                                                              0.000
 3416.00000 |******************************************                    0.060
 3472.00000 |******************************************                    0.060
 3528.00000 |*****************                                             0.024

  Time to end of optimisation =       5.2947 seconds

  Timing analysis for GULP :

  Task / Subroutine                                          Time (Seconds)
  Calculation of reciprocal space energy and derivatives          0.1008
  Calculation of reciprocal space energy using symmetry           0.1303
  Calculation of real space energy and derivatives                0.4132
  Calculation of real space energy using symmetry                 4.1573
  Symmetry generation of equivalent positions                     0.0287

  **** GULP has completed with 1 warning - beware! ****

  Job Finished at 10:22.28  9th July       2009